\ENCODING=ISO-8859-1
\Problem name: 

Minimize
 obj: 981580.445803986 w(0) + 915187.625932862 w(1) + 880069.549557988 w(2)
      + 378025.943497799 x(0,0) + 170316.433390153 x(0,1)
      + 87677.0140312667 x(0,2) + 148385.748696671 x(1,0)
      + 259733.778271384 x(1,1) + 203669.363730991 x(1,2)
      + 449458.11328032 x(2,0) + 112475.442091124 x(2,1)
      + 78515.1235165683 x(2,2) + 544843.26028901 x(3,0)
      + 148508.91822376 x(3,1) + 180199.735028852 x(3,2)
      + 462061.407058296 x(4,0) + 194996.78453777 x(4,1)
      + 96263.0980536007 x(4,2) + 818629.274958201 x(5,0)
      + 951737.610097686 x(5,1) + 1050066.4358465 x(5,2)
      + 400324.59033752 x(6,0) + 97125.139679906 x(6,1)
      + 83661.9718214351 x(6,2) + 736201.876578834 x(7,0)
      + 287064.166733111 x(7,1) + 292126.671962226 x(7,2)
      + 1247265.16877668 x(8,0) + 1215689.36756091 x(8,1)
      + 1132477.17013455 x(8,2) + 612555.521835264 x(9,0)
      + 302524.453014416 x(9,1) + 277249.461217843 x(9,2)
      + 268594.869620805 x(10,0) + 328681.869649565 x(10,1)
      + 261164.357512558 x(10,2) + 198.068207407904 y(0,1)
      + 163.951228479722 y(0,2) + 132.839104859276 y(1,0)
      + 30.8866586106832 y(1,2) + 156.140018732706 y(2,0)
      + 39.615911922682 y(2,1)
Subject To
 c1:  - 46776 w(0) + 1347 x(0,0) + 1297 x(1,0) + 1170 x(2,0) + 1244 x(3,0)
      + 1773 x(4,0) + 1221 x(5,0) + 1174 x(6,0) + 1540 x(7,0) + 1241 x(8,0)
      + 1337 x(9,0) + 1305 x(10,0) <= 0
 c2:  - 39154 w(1) + 1347 x(0,1) + 1297 x(1,1) + 1170 x(2,1) + 1244 x(3,1)
      + 1773 x(4,1) + 1221 x(5,1) + 1174 x(6,1) + 1540 x(7,1) + 1241 x(8,1)
      + 1337 x(9,1) + 1305 x(10,1) <= 0
 c3:  - 46124 w(2) + 1347 x(0,2) + 1297 x(1,2) + 1170 x(2,2) + 1244 x(3,2)
      + 1773 x(4,2) + 1221 x(5,2) + 1174 x(6,2) + 1540 x(7,2) + 1241 x(8,2)
      + 1337 x(9,2) + 1305 x(10,2) <= 0
 c4:  1347 x(0,0) + 1297 x(1,0) + 1170 x(2,0) + 1244 x(3,0) + 1773 x(4,0)
      + 1221 x(5,0) + 1174 x(6,0) + 1540 x(7,0) + 1241 x(8,0) + 1337 x(9,0)
      + 1305 x(10,0) - y(0,0) - y(0,1) - y(0,2)  = 0
 c5:  1347 x(0,1) + 1297 x(1,1) + 1170 x(2,1) + 1244 x(3,1) + 1773 x(4,1)
      + 1221 x(5,1) + 1174 x(6,1) + 1540 x(7,1) + 1241 x(8,1) + 1337 x(9,1)
      + 1305 x(10,1) - y(1,0) - y(1,1) - y(1,2)  = 0
 c6:  1347 x(0,2) + 1297 x(1,2) + 1170 x(2,2) + 1244 x(3,2) + 1773 x(4,2)
      + 1221 x(5,2) + 1174 x(6,2) + 1540 x(7,2) + 1241 x(8,2) + 1337 x(9,2)
      + 1305 x(10,2) - y(2,0) - y(2,1) - y(2,2)  = 0
 c7:  y(0,0) + y(1,0) + y(2,0) >= 997
 c8:  y(0,1) + y(1,1) + y(2,1) >= 596
 c9:  y(0,2) + y(1,2) + y(2,2) >= 1870
 c10: x(0,0) + x(0,1) + x(0,2)  = 1
 c11: x(1,0) + x(1,1) + x(1,2)  = 1
 c12: x(2,0) + x(2,1) + x(2,2)  = 1
 c13: x(3,0) + x(3,1) + x(3,2)  = 1
 c14: x(4,0) + x(4,1) + x(4,2)  = 1
 c15: x(5,0) + x(5,1) + x(5,2)  = 1
 c16: x(6,0) + x(6,1) + x(6,2)  = 1
 c17: x(7,0) + x(7,1) + x(7,2)  = 1
 c18: x(8,0) + x(8,1) + x(8,2)  = 1
 c19: x(9,0) + x(9,1) + x(9,2)  = 1
 c20: x(10,0) + x(10,1) + x(10,2)  = 1
Bounds
 0 <= w(0) <= 1
 0 <= w(1) <= 1
 0 <= w(2) <= 1
 0 <= x(0,0) <= 1
 0 <= x(0,1) <= 1
 0 <= x(0,2) <= 1
 0 <= x(1,0) <= 1
 0 <= x(1,1) <= 1
 0 <= x(1,2) <= 1
 0 <= x(2,0) <= 1
 0 <= x(2,1) <= 1
 0 <= x(2,2) <= 1
 0 <= x(3,0) <= 1
 0 <= x(3,1) <= 1
 0 <= x(3,2) <= 1
 0 <= x(4,0) <= 1
 0 <= x(4,1) <= 1
 0 <= x(4,2) <= 1
 0 <= x(5,0) <= 1
 0 <= x(5,1) <= 1
 0 <= x(5,2) <= 1
 0 <= x(6,0) <= 1
 0 <= x(6,1) <= 1
 0 <= x(6,2) <= 1
 0 <= x(7,0) <= 1
 0 <= x(7,1) <= 1
 0 <= x(7,2) <= 1
 0 <= x(8,0) <= 1
 0 <= x(8,1) <= 1
 0 <= x(8,2) <= 1
 0 <= x(9,0) <= 1
 0 <= x(9,1) <= 1
 0 <= x(9,2) <= 1
 0 <= x(10,0) <= 1
 0 <= x(10,1) <= 1
 0 <= x(10,2) <= 1
Binaries
 w(0)  w(1)  w(2)  x(0,0)  x(0,1)  x(0,2)  x(1,0)  x(1,1)  x(1,2)  x(2,0) 
 x(2,1)  x(2,2)  x(3,0)  x(3,1)  x(3,2)  x(4,0)  x(4,1)  x(4,2)  x(5,0) 
 x(5,1)  x(5,2)  x(6,0)  x(6,1)  x(6,2)  x(7,0)  x(7,1)  x(7,2)  x(8,0) 
 x(8,1)  x(8,2)  x(9,0)  x(9,1)  x(9,2)  x(10,0)  x(10,1)  x(10,2) 
End
